%%%mzn-stat: initTime=0.00390275
%%%mzn-stat: objective=356
%%%mzn-stat: nodes=906
%%%mzn-stat: restarts=0
%%%mzn-stat: peakDepth=103
%%%mzn-stat: solveTime=0.0500067
%%%mzn-stat: variables=372
%%%mzn-stat: propagators=252
%%%mzn-stat: failures=429
%%%mzn-stat: propagations=76095
%%%mzn-stat: nogoods=429
%%%mzn-stat: AverageConflictSize=10.13053613053613
%%%mzn-stat: NumUnitNogoodsLearned=355
%%%mzn-stat: AverageLearnedNogoodLength=3.2703962703962706
%%%mzn-stat: AverageBacktrackAmount=0
%%%mzn-stat: AverageLbd=1.6946386946386947
%%%mzn-stat-end
maxleg = 356;
succ = array1d(1..20,[20, 16, 13, 12, 11, 19, 14, 18, 8, 4, 10, 3, 7, 1, 2, 17, 9, 6, 5, 15]);
% time elapsed: 1.50 s
----------
==========
% time elapsed: 1.50 s
%%%mzn-stat: initTime=0.00390275
%%%mzn-stat: objective=356
%%%mzn-stat: nodes=906
%%%mzn-stat: restarts=0
%%%mzn-stat: peakDepth=103
%%%mzn-stat: solveTime=0.050009566
%%%mzn-stat: variables=372
%%%mzn-stat: propagators=252
%%%mzn-stat: failures=429
%%%mzn-stat: propagations=76095
%%%mzn-stat: nogoods=429
%%%mzn-stat: AverageConflictSize=10.13053613053613
%%%mzn-stat: NumUnitNogoodsLearned=355
%%%mzn-stat: AverageLearnedNogoodLength=3.2703962703962706
%%%mzn-stat: AverageBacktrackAmount=0
%%%mzn-stat: AverageLbd=1.6946386946386947
%%%mzn-stat-end
